29
to-4-tep-1-TSF
C                 1.7745760000       -1.6277020000        0.0359460000
C                 0.9286630000       -0.1156070000       -1.2166050000
C                 2.3379020000       -0.6567060000       -1.0555060000
C                 3.2137830000        0.0285860000        0.0214610000
H                 3.1820830000        1.1323580000        0.0663770000
H                 4.2690550000       -0.2728280000       -0.0733780000
C                 2.4790160000       -0.7760380000        1.1229890000
H                 1.7916570000       -0.1838670000        1.7533070000
H                 3.1398160000       -1.3430820000        1.7958200000
H                 2.0037670000       -2.7029030000        0.0379050000
H                 2.8353010000       -0.9875550000       -1.9803210000
H                 0.5066560000        0.1637170000       -2.1955130000
H                -0.1191080000       -2.0012670000       -0.9722090000
C                 0.3287660000       -1.2191660000       -0.3309850000
Cu                0.5283520000        1.5165410000       -0.0196480000
H                -4.0538350000        0.8801600000       -1.2072670000
H                -0.3359290000       -1.3647780000        1.7406520000
H                -1.6542050000        0.3803260000       -1.0664650000
C                -0.6550630000       -0.8858280000        0.8026200000
C                -2.1542600000       -0.9364480000        0.5394250000
C                -1.0553680000        0.6602980000        0.9800120000
C                -2.1327320000        0.5016620000       -0.0817190000
C                -3.6450110000        0.3652080000       -0.3252000000
H                -1.3682090000        0.9468220000        1.9928060000
H                -3.0079680000       -1.4310640000       -1.4806590000
H                -2.6459160000       -0.8870390000        1.5242430000
C                -3.3364500000       -1.1725490000       -0.4624370000
H                -4.2620470000        0.5736550000        0.5625690000
H                -4.1062740000       -1.8766070000       -0.1080850000
