29
to-4-tep-1-TSF
C                 1.9326130000       -0.4648680000        1.4148920000
C                 1.1474020000       -1.1395100000       -0.4484200000
C                 2.5528120000       -1.0257510000        0.0893910000
C                 3.2705110000        0.3299440000       -0.1337440000
H                 3.1573810000        0.7925880000       -1.1302380000
H                 4.3467620000        0.2496450000        0.0829400000
C                 2.4791240000        0.9397570000        1.0493000000
H                 1.7071510000        1.6780880000        0.7689500000
H                 3.1024670000        1.4041630000        1.8277930000
H                 2.2143350000       -0.8574920000        2.4018370000
H                 3.1630100000       -1.9390690000        0.0250930000
H                 0.8047450000       -1.9544420000       -1.1065670000
H                 0.1558630000       -1.7390370000        1.3741820000
C                 0.5070210000       -0.7988830000        0.9085430000
Cu                0.3103370000        0.5467710000       -1.3815730000
H                -4.3376220000       -1.0324980000       -0.6287000000
H                -0.2146430000        1.0289770000        1.8158920000
H                -1.8845200000       -0.9737010000       -0.6300540000
C                -0.5852180000        0.2797350000        1.1003100000
C                -2.0507050000       -0.0787450000        1.3171660000
C                -1.2891380000        0.9983470000       -0.1868220000
C                -2.3455690000       -0.0543900000       -0.2105580000
C                -3.8059760000       -0.4168200000        0.1113510000
H                -1.5867120000        2.0403880000       -0.0031640000
H                -2.8541960000       -2.1693400000        1.1096500000
H                -2.5122650000        0.8160750000        1.7649790000
C                -3.1925520000       -1.1529190000        1.3624430000
H                -4.4261300000        0.4419210000        0.4116070000
H                -3.7858200000       -1.1586990000        2.2902090000
